Minimize
  0.0625 y_0 + 0.0769230769230769 y_1 + 0.0526315789473684 y_2 + 0.04 y_3
   + 0.0454545454545455 y_4 + 0.1428571428571428 y_5
   + 0.0526315789473684 y_6 + 0.0526315789473684 y_7
   + 0.0476190476190476 y_8 + 0.1428571428571428 y_9 + 0.0625 y_10
   + 0.0625 y_11 + 0.1111111111111111 y_12 + 0.0769230769230769 y_13
   + 0.0476190476190476 y_14 + 0.0454545454545455 y_15
   + 0.0714285714285714 y_16 + 0.0555555555555556 y_17
   + 0.1666666666666667 y_18 + 0.0384615384615385 y_19
   + 0.0555555555555556 y_20 + 0.0434782608695652 y_21
   + 0.1666666666666667 y_22 + 0.0454545454545455 y_23
   + 0.0526315789473684 y_24 + 0.05 y_25 + 0.0476190476190476 y_26
   + 0.125 y_27 + 0.0625 y_28 + 0.1111111111111111 y_29
   + 0.0526315789473684 y_30 + 0.0714285714285714 y_31 + 0.1 y_32 + y_33
   + 0.0416666666666667 y_34 + 0.0625 y_35 + 0.25 y_36 + 0.125 y_37
   + 0.0555555555555556 y_38 + 0.037037037037037 y_39
   + 0.0526315789473684 y_40 + 0.0526315789473684 y_41
   + 0.0666666666666667 y_42 + 0.0833333333333333 y_43
   + 0.0833333333333333 y_44 + 0.0526315789473684 y_45
   + 0.3333333333333333 y_46 + 0.0416666666666667 y_47
   + 0.0833333333333333 y_48 + 0.0588235294117647 y_49
   + 0.0769230769230769 y_50 + 0.0555555555555556 y_51 + 0.0625 y_52
   + 0.0555555555555556 y_53 + 0.0909090909090909 y_54
   + 0.0588235294117647 y_55 + 0.0555555555555556 y_56
   + 0.0666666666666667 y_57 + 0.0434782608695652 y_58
   + 0.0588235294117647 y_59 + 0.0526315789473684 y_60
   + 0.0526315789473684 y_61 + 0.0833333333333333 y_62
   + 0.0714285714285714 y_63 + 0.0769230769230769 y_64 + 0.0625 y_65
   + 0.0357142857142857 y_66 + 0.0476190476190476 y_67
   + 0.0833333333333333 y_68 + 0.1428571428571428 y_69
   + 0.0555555555555556 y_70 + 0.0384615384615385 y_71
   + 0.0909090909090909 y_72 + 0.0833333333333333 y_73 + 0.0625 y_74
   + 0.05 y_75 + 0.04 y_76 + 0.0625 y_77 + 0.0526315789473684 y_78
   + 0.0833333333333333 y_79 + 0.0476190476190476 y_80 + 0.25 y_81
   + 0.0476190476190476 y_82 + 0.0909090909090909 y_83
   + 0.0666666666666667 y_84 + 0.0714285714285714 y_85
   + 0.0769230769230769 y_86 + 0.0666666666666667 y_87 + 0.2 y_88
   + 0.1111111111111111 y_89 + 0.0714285714285714 y_90
   + 0.0416666666666667 y_91 + 0.0526315789473684 y_92
   + 0.0714285714285714 y_93 + 0.0769230769230769 y_94 + 0.125 y_95
   + 0.0476190476190476 y_96 + 0.25 y_97 + 0.0416666666666667 y_98
   + 0.0434782608695652 y_99 + 0.0714285714285714 y_100
   + 0.0434782608695652 y_101 + 0.1428571428571428 y_102 + 0.05 y_103
   + 0.0666666666666667 y_104 + 0.04 y_105 + 0.0384615384615385 y_106
   + 0.0526315789473684 y_107 + 0.0416666666666667 y_108 + 0.0625 y_109
   + 0.0625 y_110 + 0.0666666666666667 y_111 + 0.0588235294117647 y_112
   + 0.0666666666666667 y_113 + 0.0555555555555556 y_114
   + 0.1111111111111111 y_115 + 0.05 y_116 + 0.0769230769230769 y_117
   + 0.0714285714285714 y_118 + 0.0714285714285714 y_119
   + 0.0526315789473684 y_120 + 0.0666666666666667 y_121 + 0.05 y_122
   + 0.0588235294117647 y_123 + 0.0526315789473684 y_124
   + 0.0416666666666667 y_125 + 0.1428571428571428 y_126 + 0.125 y_127
   + 0.0833333333333333 y_128 + 0.0588235294117647 y_129
   + 0.0526315789473684 y_130 + 0.0476190476190476 y_131
   + 0.0526315789473684 y_132 + 0.0555555555555556 y_133
   + 0.0526315789473684 y_134 + 0.0769230769230769 y_135
   + 0.0416666666666667 y_136 + 0.0833333333333333 y_137
   + 0.0454545454545455 y_138 + 0.0588235294117647 y_139 + 0.25 y_140
   + 0.0909090909090909 y_141 + 0.0588235294117647 y_142 + 0.0625 y_143
   + 0.0625 y_144 + 0.05 y_145 + 0.0416666666666667 y_146
   + 0.0416666666666667 y_147 + 0.0434782608695652 y_148 + 0.05 y_149
   + 0.0416666666666667 y_150 + 0.0588235294117647 y_151
   + 0.0769230769230769 y_152 + 0.05 y_153 + 0.0714285714285714 y_154
   + 0.1428571428571428 y_155 + 0.0526315789473684 y_156
   + 0.0555555555555556 y_157 + 0.0769230769230769 y_158 + 0.0625 y_159
   + 0.0454545454545455 y_160 + 0.1 y_161 + 0.0714285714285714 y_162
   + 0.0588235294117647 y_163 + 0.04 y_164 + 0.05 y_165
   + 0.0833333333333333 y_166 + 0.0555555555555556 y_167
   + 0.0476190476190476 y_168 + 0.1428571428571428 y_169
   + 0.0588235294117647 y_170 + 0.0588235294117647 y_171
   + 0.0416666666666667 y_172 + 0.0434782608695652 y_173
   + 0.0384615384615385 y_174 + 0.125 y_175 + 0.0588235294117647 y_176
   + 0.037037037037037 y_177 + 0.0555555555555556 y_178 + 0.0625 y_179
   + 0.0416666666666667 y_180 + 0.0555555555555556 y_181
   + 0.0588235294117647 y_182 + 0.0526315789473684 y_183
   + 0.0769230769230769 y_184 + 0.0588235294117647 y_185 + 0.0625 y_186
   + 0.0454545454545455 y_187 + 0.1 y_188 + 0.0588235294117647 y_189
   + 0.05 y_190 + 0.0526315789473684 y_191 + 0.1428571428571428 y_192
   + 0.037037037037037 y_193 + 0.0476190476190476 y_194
   + 0.0555555555555556 y_195 + 0.0588235294117647 y_196
   + 0.0714285714285714 y_197 + 0.0909090909090909 y_198
   + 0.0454545454545455 y_199 - 15.3024314244108 Constant
Subject To
 c_0: y_193 = 1
 c_1_0: y_0 + y_11 + y_17 + y_123 + y_139 + y_142 >= 1
 c_1_1: y_1 + y_16 + y_31 + y_48 + y_73 + y_85 + y_86 + y_113 + y_117
   + y_135 + y_197 >= 1
 c_1_2: y_2 + y_20 + y_30 + y_53 + y_59 + y_60 + y_112 + y_153 + y_182
   + y_185 >= 1
 c_1_3: y_3 + y_106 + y_147 + y_148 + y_164 + y_180 >= 1
 c_1_4: y_4 + y_80 + y_96 + y_101 >= 1
 c_1_5: y_5 + y_18 + y_22 + y_95 + y_102 + y_126 + y_127 + y_155 + y_169
   >= 1
 c_1_6: y_6 + y_56 + y_82 + y_120 + y_122 + y_130 + y_191 >= 1
 c_1_7: y_7 + y_45 + y_92 + y_96 + y_103 + y_114 + y_165 + y_183 + y_195
   >= 1
 c_1_8: y_8 + y_15 + y_21 + y_75 + y_82 + y_122 + y_168 + y_187 + y_190
   + y_199 >= 1
 c_1_9: y_9 + y_27 + y_69 >= 1
 c_1_10: y_10 + y_16 + y_52 + y_77 + y_84 + y_85 + y_111 + y_113 + y_171
   + y_197 >= 1
 c_1_11: y_0 + y_11 + y_57 + y_118 + y_119 + y_123 + y_133 + y_139 + y_142
   >= 1
 c_1_12: y_12 + y_32 + y_83 + y_115 >= 1
 c_1_13: y_13 + y_44 + y_57 + y_63 + y_68 + y_90 + y_118 + y_119 + y_128
   + y_184 >= 1
 c_1_14: y_14 + y_23 + y_131 + y_173 >= 1
 c_1_15: y_8 + y_15 + y_21 + y_82 + y_122 + y_187 + y_190 + y_199 >= 1
 c_1_16: y_1 + y_10 + y_16 + y_42 + y_52 + y_77 + y_84 + y_85 + y_86
   + y_111 + y_197 >= 1
 c_1_17: y_0 + y_17 + y_24 + y_61 + y_78 + y_123 + y_145 + y_167 + y_178
   >= 1
 c_1_18: y_5 + y_18 + y_22 + y_37 + y_97 + y_102 + y_127 + y_155 + y_169
   + y_175 + y_192 >= 1
 c_1_19: y_19 + y_39 + y_105 + y_174 + y_193 >= 1
 c_1_20: y_2 + y_20 + y_30 + y_41 + y_60 + y_129 + y_153 + y_185 >= 1
 c_1_21: y_8 + y_15 + y_21 + y_187 + y_199 >= 1
 c_1_22: y_5 + y_18 + y_22 + y_97 + y_102 + y_126 + y_127 + y_155 + y_169
   + y_192 >= 1
 c_1_23: y_14 + y_23 + y_99 + y_131 + y_148 + y_173 >= 1
 c_1_24: y_17 + y_24 + y_61 + y_67 + y_78 + y_145 + y_167 + y_194 >= 1
 c_1_25: y_25 + y_116 >= 1
 c_1_26: y_26 + y_80 + y_138 + y_149 + y_165 >= 1
 c_1_27: y_9 + y_27 + y_29 + y_69 + y_115 + y_188 >= 1
 c_1_28: y_28 + y_35 + y_109 + y_121 + y_163 + y_170 >= 1
 c_1_29: y_27 + y_29 + y_115 + y_188 >= 1
 c_1_30: y_2 + y_20 + y_30 + y_41 + y_53 + y_59 + y_60 + y_112 + y_129
   + y_153 + y_185 >= 1
 c_1_31: y_1 + y_31 + y_85 + y_86 + y_87 + y_94 + y_104 + y_113 + y_117
   + y_135 + y_154 + y_158 >= 1
 c_1_32: y_12 + y_32 + y_54 + y_73 + y_83 + y_115 + y_137 + y_141 + y_188
   >= 1
 c_1_33: y_33 >= 1
 c_1_34: y_34 + y_47 + y_76 + y_101 + y_108 + y_125 + y_138 + y_146 + y_150
   >= 1
 c_1_35: y_28 + y_35 + y_42 + y_109 + y_121 + y_170 >= 1
 c_1_36: y_36 + y_46 + y_88 + y_97 + y_140 >= 1
 c_1_37: y_18 + y_37 + y_127 + y_175 + y_192 >= 1
 c_1_38: y_38 + y_40 + y_51 + y_124 + y_132 + y_134 + y_156 + y_157 + y_170
   + y_181 >= 1
 c_1_39: y_19 + y_39 + y_105 + y_174 + y_193 >= 1
 c_1_40: y_38 + y_40 + y_51 + y_124 + y_132 + y_134 + y_156 + y_157 + y_181
   >= 1
 c_1_41: y_20 + y_30 + y_41 + y_60 + y_92 + y_149 + y_153 >= 1
 c_1_42: y_16 + y_35 + y_42 + y_64 + y_84 + y_109 + y_111 + y_121 + y_170
   >= 1
 c_1_43: y_43 + y_62 + y_72 + y_79 + y_161 + y_166 + y_198 >= 1
 c_1_44: y_13 + y_44 + y_68 + y_72 + y_128 >= 1
 c_1_45: y_7 + y_45 + y_96 + y_103 + y_114 + y_132 + y_183 + y_195 >= 1
 c_1_46: y_36 + y_46 + y_81 + y_88 + y_97 + y_140 >= 1
 c_1_47: y_34 + y_47 + y_76 + y_101 + y_108 + y_125 + y_138 + y_150 >= 1
 c_1_48: y_1 + y_48 + y_50 + y_54 + y_73 + y_85 + y_86 + y_135 + y_137
   + y_141 >= 1
 c_1_49: y_49 + y_56 + y_65 + y_70 + y_74 + y_159 + y_176 + y_182 + y_189
   + y_191 + y_196 >= 1
 c_1_50: y_48 + y_50 + y_64 + y_137 + y_141 >= 1
 c_1_51: y_38 + y_40 + y_51 + y_124 + y_132 + y_134 + y_181 + y_195 >= 1
 c_1_52: y_10 + y_16 + y_52 + y_77 + y_84 + y_85 + y_111 + y_113 + y_151
   + y_171 + y_197 >= 1
 c_1_53: y_2 + y_30 + y_53 + y_59 + y_70 + y_112 + y_129 + y_143 + y_144
   + y_182 + y_185 + y_186 + y_196 >= 1
 c_1_54: y_32 + y_48 + y_54 + y_73 + y_83 + y_115 + y_137 + y_141 + y_188
   >= 1
 c_1_55: y_55 + y_61 + y_110 + y_167 + y_179 >= 1
 c_1_56: y_6 + y_49 + y_56 + y_65 + y_107 + y_130 + y_133 + y_139 + y_142
   + y_176 >= 1
 c_1_57: y_11 + y_13 + y_57 + y_118 + y_119 >= 1
 c_1_58: y_58 + y_91 + y_105 + y_146 + y_172 >= 1
 c_1_59: y_2 + y_30 + y_53 + y_59 + y_70 + y_112 + y_129 + y_143 + y_144
   + y_182 + y_185 + y_186 + y_196 >= 1
 c_1_60: y_2 + y_20 + y_30 + y_41 + y_60 + y_149 + y_153 >= 1
 c_1_61: y_17 + y_24 + y_55 + y_61 + y_78 + y_145 + y_167 >= 1
 c_1_62: y_43 + y_62 + y_72 + y_161 + y_166 + y_198 >= 1
 c_1_63: y_13 + y_63 + y_90 + y_100 + y_152 + y_184 >= 1
 c_1_64: y_42 + y_50 + y_64 + y_121 + y_137 >= 1
 c_1_65: y_49 + y_56 + y_65 + y_74 + y_93 + y_159 + y_176 + y_189 >= 1
 c_1_66: y_66 + y_71 + y_177 >= 1
 c_1_67: y_24 + y_67 + y_145 + y_194 >= 1
 c_1_68: y_13 + y_44 + y_68 + y_72 + y_128 >= 1
 c_1_69: y_9 + y_27 + y_69 >= 1
 c_1_70: y_49 + y_53 + y_59 + y_70 + y_74 + y_120 + y_143 + y_159 + y_176
   + y_182 + y_189 + y_191 + y_196 >= 1
 c_1_71: y_66 + y_71 + y_106 + y_177 >= 1
 c_1_72: y_43 + y_44 + y_62 + y_68 + y_72 + y_161 + y_198 >= 1
 c_1_73: y_1 + y_32 + y_48 + y_54 + y_73 + y_83 + y_86 + y_137 + y_141
   >= 1
 c_1_74: y_49 + y_65 + y_70 + y_74 + y_93 + y_144 + y_159 + y_176 + y_182
   + y_189 + y_196 >= 1
 c_1_75: y_8 + y_75 + y_107 + y_168 + y_190 + y_194 >= 1
 c_1_76: y_34 + y_47 + y_76 + y_105 + y_108 + y_146 + y_150 >= 1
 c_1_77: y_10 + y_16 + y_52 + y_77 + y_84 + y_111 + y_113 + y_197 >= 1
 c_1_78: y_17 + y_24 + y_61 + y_78 + y_107 + y_123 + y_145 + y_167 + y_178
   + y_194 >= 1
 c_1_79: y_43 + y_79 + y_94 + y_154 + y_158 + y_166 >= 1
 c_1_80: y_4 + y_26 + y_80 + y_101 + y_138 + y_149 + y_165 >= 1
 c_1_81: y_46 + y_81 + y_97 >= 1
 c_1_82: y_6 + y_8 + y_15 + y_82 + y_122 + y_130 + y_187 + y_190 + y_199
   >= 1
 c_1_83: y_12 + y_32 + y_54 + y_73 + y_83 + y_117 >= 1
 c_1_84: y_10 + y_16 + y_42 + y_52 + y_77 + y_84 + y_111 + y_197 >= 1
 c_1_85: y_1 + y_10 + y_16 + y_31 + y_48 + y_52 + y_85 + y_86 + y_113
   + y_117 + y_135 + y_197 >= 1
 c_1_86: y_1 + y_16 + y_31 + y_48 + y_73 + y_85 + y_86 + y_113 + y_117
   + y_135 + y_197 >= 1
 c_1_87: y_31 + y_87 + y_104 + y_154 + y_158 >= 1
 c_1_88: y_36 + y_46 + y_88 + y_97 + y_140 >= 1
 c_1_89: y_89 + y_127 + y_161 + y_175 >= 1
 c_1_90: y_13 + y_63 + y_90 + y_100 + y_152 + y_184 >= 1
 c_1_91: y_58 + y_91 + y_98 + y_105 + y_146 + y_172 >= 1
 c_1_92: y_7 + y_41 + y_92 + y_114 + y_149 + y_165 >= 1
 c_1_93: y_65 + y_74 + y_93 + y_159 + y_162 >= 1
 c_1_94: y_31 + y_79 + y_94 + y_117 + y_154 + y_158 + y_166 >= 1
 c_1_95: y_5 + y_95 + y_102 + y_126 + y_155 + y_169 >= 1
 c_1_96: y_4 + y_7 + y_45 + y_96 + y_103 + y_183 >= 1
 c_1_97: y_18 + y_22 + y_36 + y_46 + y_81 + y_88 + y_97 >= 1
 c_1_98: y_91 + y_98 + y_147 + y_148 + y_172 + y_173 >= 1
 c_1_99: y_23 + y_99 + y_136 + y_148 + y_160 + y_164 + y_180 >= 1
 c_1_100: y_63 + y_90 + y_100 + y_110 + y_152 + y_184 >= 1
 c_1_101: y_4 + y_34 + y_47 + y_80 + y_101 + y_108 + y_125 + y_138 + y_150
   >= 1
 c_1_102: y_5 + y_18 + y_22 + y_95 + y_102 + y_126 + y_127 + y_155 + y_169
   >= 1
 c_1_103: y_7 + y_45 + y_96 + y_103 + y_124 + y_132 + y_183 + y_195 >= 1
 c_1_104: y_31 + y_87 + y_104 + y_154 + y_158 >= 1
 c_1_105: y_19 + y_39 + y_58 + y_76 + y_91 + y_105 + y_146 + y_174 >= 1
 c_1_106: y_3 + y_71 + y_106 + y_164 >= 1
 c_1_107: y_56 + y_75 + y_78 + y_107 + y_130 + y_133 + y_139 + y_142
   + y_178 + y_190 >= 1
 c_1_108: y_34 + y_47 + y_76 + y_101 + y_108 + y_125 + y_146 + y_150 >= 1
 c_1_109: y_28 + y_35 + y_42 + y_109 + y_121 + y_170 >= 1
 c_1_110: y_55 + y_100 + y_110 + y_179 >= 1
 c_1_111: y_10 + y_16 + y_42 + y_52 + y_77 + y_84 + y_111 + y_197 >= 1
 c_1_112: y_2 + y_30 + y_53 + y_59 + y_112 + y_129 + y_143 + y_144 + y_182
   + y_185 + y_186 + y_196 >= 1
 c_1_113: y_1 + y_10 + y_31 + y_52 + y_77 + y_85 + y_86 + y_113 + y_117
   + y_135 + y_151 + y_171 + y_197 >= 1
 c_1_114: y_7 + y_45 + y_92 + y_114 + y_151 + y_171 >= 1
 c_1_115: y_12 + y_27 + y_29 + y_32 + y_54 + y_115 + y_188 >= 1
 c_1_116: y_25 + y_116 + y_156 >= 1
 c_1_117: y_1 + y_31 + y_83 + y_85 + y_86 + y_94 + y_113 + y_117 + y_135
   + y_154 + y_158 >= 1
 c_1_118: y_11 + y_13 + y_57 + y_118 + y_119 >= 1
 c_1_119: y_11 + y_13 + y_57 + y_118 + y_119 >= 1
 c_1_120: y_6 + y_70 + y_120 + y_176 + y_182 + y_189 + y_191 >= 1
 c_1_121: y_28 + y_35 + y_42 + y_64 + y_109 + y_121 + y_170 >= 1
 c_1_122: y_6 + y_8 + y_15 + y_82 + y_122 + y_130 >= 1
 c_1_123: y_0 + y_11 + y_17 + y_78 + y_123 + y_133 + y_139 + y_142 + y_167
   + y_178 >= 1
 c_1_124: y_38 + y_40 + y_51 + y_103 + y_124 + y_132 + y_181 + y_183
   + y_195 >= 1
 c_1_125: y_34 + y_47 + y_101 + y_108 + y_125 + y_138 + y_150 >= 1
 c_1_126: y_5 + y_22 + y_95 + y_102 + y_126 + y_155 + y_169 >= 1
 c_1_127: y_5 + y_18 + y_22 + y_37 + y_89 + y_102 + y_127 + y_155 + y_169
   + y_175 + y_192 >= 1
 c_1_128: y_13 + y_44 + y_68 + y_128 + y_184 >= 1
 c_1_129: y_20 + y_30 + y_53 + y_59 + y_112 + y_129 + y_143 + y_144 + y_185
   + y_186 >= 1
 c_1_130: y_6 + y_56 + y_82 + y_107 + y_122 + y_130 + y_133 + y_190 >= 1
 c_1_131: y_14 + y_23 + y_131 + y_173 >= 1
 c_1_132: y_38 + y_40 + y_45 + y_51 + y_103 + y_124 + y_132 + y_181 + y_183
   + y_195 >= 1
 c_1_133: y_11 + y_56 + y_107 + y_123 + y_130 + y_133 + y_139 + y_142
   + y_178 >= 1
 c_1_134: y_38 + y_40 + y_51 + y_134 + y_156 + y_157 + y_181 >= 1
 c_1_135: y_1 + y_31 + y_48 + y_85 + y_86 + y_113 + y_117 + y_135 + y_197
   >= 1
 c_1_136: y_99 + y_136 + y_160 + y_164 + y_180 >= 1
 c_1_137: y_32 + y_48 + y_50 + y_54 + y_64 + y_73 + y_137 + y_141 >= 1
 c_1_138: y_26 + y_34 + y_47 + y_80 + y_101 + y_125 + y_138 + y_150 + y_165
   >= 1
 c_1_139: y_0 + y_11 + y_56 + y_107 + y_123 + y_133 + y_139 + y_142 + y_178
   >= 1
 c_1_140: y_36 + y_46 + y_88 + y_140 >= 1
 c_1_141: y_32 + y_48 + y_50 + y_54 + y_73 + y_137 + y_141 + y_188 >= 1
 c_1_142: y_0 + y_11 + y_56 + y_107 + y_123 + y_133 + y_139 + y_142 + y_178
   >= 1
 c_1_143: y_53 + y_59 + y_70 + y_112 + y_129 + y_143 + y_144 + y_159
   + y_182 + y_185 + y_186 + y_196 >= 1
 c_1_144: y_53 + y_59 + y_74 + y_112 + y_129 + y_143 + y_144 + y_159
   + y_162 + y_182 + y_185 + y_186 + y_196 >= 1
 c_1_145: y_17 + y_24 + y_61 + y_67 + y_78 + y_145 + y_178 + y_194 >= 1
 c_1_146: y_34 + y_58 + y_76 + y_91 + y_105 + y_108 + y_146 + y_150 >= 1
 c_1_147: y_3 + y_98 + y_147 + y_148 + y_172 + y_173 >= 1
 c_1_148: y_3 + y_23 + y_98 + y_99 + y_147 + y_148 + y_172 + y_173 + y_180
   >= 1
 c_1_149: y_26 + y_41 + y_60 + y_80 + y_92 + y_149 + y_153 + y_165 >= 1
 c_1_150: y_34 + y_47 + y_76 + y_101 + y_108 + y_125 + y_138 + y_146
   + y_150 >= 1
 c_1_151: y_52 + y_113 + y_114 + y_151 + y_171 >= 1
 c_1_152: y_63 + y_90 + y_100 + y_152 + y_184 >= 1
 c_1_153: y_2 + y_20 + y_30 + y_41 + y_60 + y_149 + y_153 >= 1
 c_1_154: y_31 + y_79 + y_87 + y_94 + y_104 + y_117 + y_154 + y_158 + y_166
   >= 1
 c_1_155: y_5 + y_18 + y_22 + y_95 + y_102 + y_126 + y_127 + y_155 + y_169
   + y_192 >= 1
 c_1_156: y_38 + y_40 + y_116 + y_134 + y_156 + y_157 + y_181 >= 1
 c_1_157: y_38 + y_40 + y_134 + y_156 + y_157 + y_170 + y_181 >= 1
 c_1_158: y_31 + y_79 + y_87 + y_94 + y_104 + y_117 + y_154 + y_158 + y_166
   >= 1
 c_1_159: y_49 + y_65 + y_70 + y_74 + y_93 + y_143 + y_144 + y_159 + y_162
   + y_176 + y_182 + y_189 + y_196 >= 1
 c_1_160: y_99 + y_136 + y_160 + y_180 + y_199 >= 1
 c_1_161: y_43 + y_62 + y_72 + y_89 + y_161 + y_198 >= 1
 c_1_162: y_93 + y_144 + y_159 + y_162 + y_186 >= 1
 c_1_163: y_28 + y_163 >= 1
 c_1_164: y_3 + y_99 + y_106 + y_136 + y_164 + y_180 >= 1
 c_1_165: y_7 + y_26 + y_80 + y_92 + y_138 + y_149 + y_165 >= 1
 c_1_166: y_43 + y_62 + y_79 + y_94 + y_154 + y_158 + y_166 >= 1
 c_1_167: y_17 + y_24 + y_55 + y_61 + y_78 + y_123 + y_167 + y_179 >= 1
 c_1_168: y_8 + y_75 + y_168 + y_190 + y_194 >= 1
 c_1_169: y_5 + y_18 + y_22 + y_95 + y_102 + y_126 + y_127 + y_155 + y_169
   >= 1
 c_1_170: y_28 + y_35 + y_38 + y_42 + y_109 + y_121 + y_157 + y_170 >= 1
 c_1_171: y_10 + y_52 + y_113 + y_114 + y_151 + y_171 >= 1
 c_1_172: y_58 + y_91 + y_98 + y_147 + y_148 + y_172 + y_173 >= 1
 c_1_173: y_14 + y_23 + y_98 + y_131 + y_147 + y_148 + y_172 + y_173 >= 1
 c_1_174: y_19 + y_39 + y_105 + y_174 + y_193 >= 1
 c_1_175: y_18 + y_37 + y_89 + y_127 + y_175 + y_192 >= 1
 c_1_176: y_49 + y_56 + y_65 + y_70 + y_74 + y_120 + y_159 + y_176 + y_182
   + y_189 + y_191 + y_196 >= 1
 c_1_177: y_66 + y_71 + y_177 + y_193 >= 1
 c_1_178: y_17 + y_78 + y_107 + y_123 + y_133 + y_139 + y_142 + y_145
   + y_178 >= 1
 c_1_179: y_55 + y_110 + y_167 + y_179 >= 1
 c_1_180: y_3 + y_99 + y_136 + y_148 + y_160 + y_164 + y_180 >= 1
 c_1_181: y_38 + y_40 + y_51 + y_124 + y_132 + y_134 + y_156 + y_157
   + y_181 + y_195 >= 1
 c_1_182: y_2 + y_49 + y_53 + y_59 + y_70 + y_74 + y_112 + y_120 + y_143
   + y_144 + y_159 + y_176 + y_182 + y_185 + y_186 + y_189 + y_191 + y_196
   >= 1
 c_1_183: y_7 + y_45 + y_96 + y_103 + y_124 + y_132 + y_183 + y_195 >= 1
 c_1_184: y_13 + y_63 + y_90 + y_100 + y_128 + y_152 + y_184 >= 1
 c_1_185: y_2 + y_20 + y_30 + y_53 + y_59 + y_112 + y_129 + y_143 + y_144
   + y_182 + y_185 + y_186 + y_196 >= 1
 c_1_186: y_53 + y_59 + y_112 + y_129 + y_143 + y_144 + y_162 + y_182
   + y_185 + y_186 + y_196 >= 1
 c_1_187: y_8 + y_15 + y_21 + y_82 + y_187 + y_199 >= 1
 c_1_188: y_27 + y_29 + y_32 + y_54 + y_115 + y_141 + y_188 >= 1
 c_1_189: y_49 + y_65 + y_70 + y_74 + y_120 + y_159 + y_176 + y_182 + y_189
   + y_191 + y_196 >= 1
 c_1_190: y_8 + y_15 + y_75 + y_82 + y_107 + y_130 + y_168 + y_190 >= 1
 c_1_191: y_6 + y_49 + y_70 + y_120 + y_176 + y_182 + y_189 + y_191 >= 1
 c_1_192: y_18 + y_22 + y_37 + y_127 + y_155 + y_175 + y_192 >= 1
 c_1_193: y_19 + y_39 + y_174 + y_177 + y_193 >= 1
 c_1_194: y_24 + y_67 + y_75 + y_78 + y_145 + y_168 + y_194 >= 1
 c_1_195: y_7 + y_45 + y_51 + y_103 + y_124 + y_132 + y_181 + y_183 + y_195
   >= 1
 c_1_196: y_49 + y_53 + y_59 + y_70 + y_74 + y_112 + y_143 + y_144 + y_159
   + y_176 + y_182 + y_185 + y_186 + y_189 + y_196 >= 1
 c_1_197: y_1 + y_10 + y_16 + y_52 + y_77 + y_84 + y_85 + y_86 + y_111
   + y_113 + y_135 + y_197 >= 1
 c_1_198: y_43 + y_62 + y_72 + y_161 + y_198 >= 1
 c_1_199: y_8 + y_15 + y_21 + y_82 + y_160 + y_187 + y_199 >= 1
Bounds
 Constant = 1
Binaries
 y_0 y_1 y_2 y_3 y_4 y_5 y_6 y_7 y_8 y_9 y_10 y_11 y_12 y_13 y_14 y_15 y_16
 y_17 y_18 y_19 y_20 y_21 y_22 y_23 y_24 y_25 y_26 y_27 y_28 y_29 y_30 y_31
 y_32 y_33 y_34 y_35 y_36 y_37 y_38 y_39 y_40 y_41 y_42 y_43 y_44 y_45 y_46
 y_47 y_48 y_49 y_50 y_51 y_52 y_53 y_54 y_55 y_56 y_57 y_58 y_59 y_60 y_61
 y_62 y_63 y_64 y_65 y_66 y_67 y_68 y_69 y_70 y_71 y_72 y_73 y_74 y_75 y_76
 y_77 y_78 y_79 y_80 y_81 y_82 y_83 y_84 y_85 y_86 y_87 y_88 y_89 y_90 y_91
 y_92 y_93 y_94 y_95 y_96 y_97 y_98 y_99 y_100 y_101 y_102 y_103 y_104
 y_105 y_106 y_107 y_108 y_109 y_110 y_111 y_112 y_113 y_114 y_115 y_116
 y_117 y_118 y_119 y_120 y_121 y_122 y_123 y_124 y_125 y_126 y_127 y_128
 y_129 y_130 y_131 y_132 y_133 y_134 y_135 y_136 y_137 y_138 y_139 y_140
 y_141 y_142 y_143 y_144 y_145 y_146 y_147 y_148 y_149 y_150 y_151 y_152
 y_153 y_154 y_155 y_156 y_157 y_158 y_159 y_160 y_161 y_162 y_163 y_164
 y_165 y_166 y_167 y_168 y_169 y_170 y_171 y_172 y_173 y_174 y_175 y_176
 y_177 y_178 y_179 y_180 y_181 y_182 y_183 y_184 y_185 y_186 y_187 y_188
 y_189 y_190 y_191 y_192 y_193 y_194 y_195 y_196 y_197 y_198 y_199
End
